2
4
20
1 1.3 1.55 1.75 2.1
33 41 24 11 8 16 42 42 35 10 19 18 5 35 33 5 36 24 27 26 13 28 17 15 13 24 40 26 27 16 12 15 6 7 20 21 8 5 22 36 47 37 29 8 22 26 20 12 33 49 7 29 45 45 44 38 6 15 23 8 32 38 46 18 22 5 6 47 9 46 45 43 21 15 7 48 6 7 32 48 